NAME          
ROWS
 N  OBJ
 L  c1
 L  c2
 L  c3
 L  c4
COLUMNS
    MARKER    'MARKER'                 'INTORG'
    x[1]      c1        534
    x[1]      c2        857
    x[1]      c3        572
    x[1]      c4        687
    x[1]      OBJ       -56
    x[2]      c1        878
    x[2]      c2        490
    x[2]      c3        464
    x[2]      c4        167
    x[2]      OBJ       -439
    x[3]      c1        687
    x[3]      c2        1
    x[3]      c3        935
    x[3]      c4        683
    x[3]      OBJ       -694
    x[4]      c1        767
    x[4]      c2        121
    x[4]      c3        392
    x[4]      c4        520
    x[4]      OBJ       -462
    x[5]      c1        685
    x[5]      c2        41
    x[5]      c3        255
    x[5]      c4        407
    x[5]      OBJ       -67
    x[6]      c1        113
    x[6]      c2        746
    x[6]      c3        895
    x[6]      c4        165
    x[6]      OBJ       -60
    x[7]      c1        425
    x[7]      c2        879
    x[7]      c3        594
    x[7]      c4        693
    x[7]      OBJ       -600
    x[8]      c1        331
    x[8]      c2        735
    x[8]      c3        648
    x[8]      c4        469
    x[8]      OBJ       -793
    x[9]      c1        358
    x[9]      c2        606
    x[9]      c3        158
    x[9]      c4        593
    x[9]      OBJ       -972
    x[10]     c1        363
    x[10]     c2        596
    x[10]     c3        87
    x[10]     c4        920
    x[10]     OBJ       -94
    x[11]     c1        547
    x[11]     c2        62
    x[11]     c3        763
    x[11]     c4        407
    x[11]     OBJ       -485
    x[12]     c1        747
    x[12]     c2        125
    x[12]     c3        659
    x[12]     c4        374
    x[12]     OBJ       -638
    x[13]     c1        388
    x[13]     c2        94
    x[13]     c3        208
    x[13]     c4        443
    x[13]     OBJ       -48
    x[14]     c1        639
    x[14]     c2        51
    x[14]     c3        547
    x[14]     c4        55
    x[14]     OBJ       -402
    x[15]     c1        169
    x[15]     c2        568
    x[15]     c3        443
    x[15]     c4        200
    x[15]     OBJ       -446
    x[16]     c1        349
    x[16]     c2        272
    x[16]     c3        213
    x[16]     c4        450
    x[16]     OBJ       -661
    x[17]     c1        74
    x[17]     c2        432
    x[17]     c3        969
    x[17]     c4        707
    x[17]     OBJ       -949
    x[18]     c1        834
    x[18]     c2        304
    x[18]     c3        259
    x[18]     c4        331
    x[18]     OBJ       -827
    x[19]     c1        515
    x[19]     c2        493
    x[19]     c3        300
    x[19]     c4        558
    x[19]     OBJ       -939
    x[20]     c1        849
    x[20]     c2        94
    x[20]     c3        811
    x[20]     c4        956
    x[20]     OBJ       -778
RHS
    rhs       c1        5126
    rhs       c2        3784
    rhs       c3        5086
    rhs       c4        4892
RANGES
BOUNDS
 BV bounds    x[1]
 BV bounds    x[2]
 BV bounds    x[3]
 BV bounds    x[4]
 BV bounds    x[5]
 BV bounds    x[6]
 BV bounds    x[7]
 BV bounds    x[8]
 BV bounds    x[9]
 BV bounds    x[10]
 BV bounds    x[11]
 BV bounds    x[12]
 BV bounds    x[13]
 BV bounds    x[14]
 BV bounds    x[15]
 BV bounds    x[16]
 BV bounds    x[17]
 BV bounds    x[18]
 BV bounds    x[19]
 BV bounds    x[20]
ENDATA
